(set-logic ALL)
(declare-fun i4 () Int)
(declare-fun i1 () Int)
(declare-fun i3 () Int)
(declare-fun it1167 () Int)
(declare-fun it1168 () Int)
(declare-fun i2 () Int)
(declare-fun it1169 () Int)
(declare-fun it1170 () Int)
(declare-fun it1171 () Int)
(declare-fun it1172 () Int)
(declare-fun it1556 () Int)
(declare-fun it1557 () Int)
(declare-fun it1558 () Int)
(declare-fun it1559 () Int)
(declare-fun it1560 () Int)
(declare-fun it1561 () Int)
(declare-fun it57 () Int)
(declare-fun it2513 () Int)
(declare-fun it2514 () Int)
(declare-fun it2515 () Int)
(declare-fun it2516 () Int)
(declare-fun it2517 () Int)
(declare-fun it2518 () Int)
(declare-fun it2523 () Int)
(declare-fun it2524 () Int)
(declare-fun it2525 () Int)
(declare-fun it2526 () Int)
(declare-fun it2527 () Int)
(declare-fun it2528 () Int)
(declare-fun it2570 () Int)
(declare-fun it2571 () Int)
(declare-fun it2572 () Int)
(declare-fun it2573 () Int)
(declare-fun it2574 () Int)
(declare-fun it2575 () Int)
(declare-fun it19 () Int)
(declare-fun it2603 () Int)
(declare-fun it2604 () Int)
(declare-fun it2605 () Int)
(declare-fun it2606 () Int)
(declare-fun it2607 () Int)
(declare-fun it2608 () Int)
(declare-fun it2623 () Int)
(declare-fun it2624 () Int)
(declare-fun it2625 () Int)
(declare-fun it2626 () Int)
(declare-fun it2627 () Int)
(declare-fun it2628 () Int)
(assert (and (>= (+ i3 (- 2)) 0) (= (+ i1 (- 1)) 0) (>= (+ i4 (- 2)) 0)))
(assert (= (+ it1167 (- 3)) 0))
(assert (= (+ (* i2 (- 1)) it1168 (- 2)) 0))
(assert (= (+ (* i3 (- 1)) it1169 1) 0))
(assert (= (+ (* i4 (- 1)) it1170) 0))
(assert (= (+ it1171 (* i3 (- 1)) 1) 0))
(assert (= (+ (* i3 (- 2)) it1172 2) 0))
(assert (and (>= (+ (* it1172 (- 1)) it1170) 0)
     (>= (+ it1169 (- 1)) 0)
     (>= (+ it1169 (- 2)) 0)
     (>= (+ (* it1170 (- 1)) 4) 0)
     (>= (+ it1172 (* it1170 (- 1))) 0)
     (>= (+ (* it1167 (- 1)) 3) 0)
     (>= (+ it1170 (- 2)) 0)
     (>= (+ it1167 (- 3)) 0)
     (>= 0 0)
     (<= (+ (* it1172 (- 1)) (* it1169 2) (- 2)) 0)))
(assert (= (+ it1556 (* it1167 (- 1))) 0))
(assert (= (+ (* it1168 (- 1)) it1557 (* it1169 (- 3)) 3) 0))
(assert (= (+ it1558 (- 1)) 0))
(assert (= (+ it1559 (* it1170 (- 1))) 0))
(assert (= (+ it1560 (- 1)) 0))
(assert (= (+ it1561 (- 2)) 0))
(assert (let ((a!1 (+ (+ 0 it1559)
              (* (exp 2 (+ it57 (- 1))) (+ 0 it1561) (+ 0 (- 1)))))
      (a!2 (>= (+ (+ it1559 (* it1561 (- 1))) (- 1)) 0)))
  (and (>= (+ it57 (- 1)) 0)
       (>= (+ a!1 (+ 0 (- 1))) (+ 0 0))
       (>= (+ it1561 (- 1)) 0)
       (>= (+ it1559 (* it1561 (- 1))) 0)
       (>= (+ (* it1556 (- 1)) 3) 0)
       a!2
       (>= (+ it1556 (- 3)) 0)
       (>= a!1 (+ 0 0)))))
(assert (= (+ (* it1556 (- 1)) it2513) 0))
(assert (= (+ (* it1557 (- 1)) it2514 (* it57 (- 1))) 0))
(assert (= (+ it2515 (* it1558 (- 1))) 0))
(assert (= (+ it2516 (* it1559 (- 1))) 0))
(assert (let ((a!1 (+ (+ 0 it2517)
              (* (exp 2 (+ it57 (- 1))) (+ 0 it1561) (+ 0 (- 1))))))
  (= a!1 (+ 0 0))))
(assert (= (+ (+ 0 it2518) (* (exp 2 it57) (+ 0 it1561) (+ 0 (- 1))))
   (+ 0 0)))
(assert (and (= (+ it2516 (* it2518 (- 1))) 0) (= (+ it2513 (- 3)) 0)))
(assert (= (+ it2523 (- 4)) 0))
(assert (= (+ (* it2514 (- 1)) it2524 (- 1)) 0))
(assert (= (+ (* it2515 (- 1)) it2525) 0))
(assert (= (+ (* it2516 (- 1)) it2526) 0))
(assert (= (+ (* it2517 (- 1)) it2527) 0))
(assert (= (+ (* it2518 (- 1)) it2528) 0))
(assert (and (>= (+ it2526 (- 2)) 0)
     (>= (+ it2526 (- 3)) 0)
     (= (+ it2523 (- 4)) 0)
     (= (+ it2525 (- 1)) 0)))
(assert (= (+ it2570 (- 3)) 0))
(assert (= (+ it2571 (* it2524 (- 1)) (- 2)) 0))
(assert (= (+ it2572 (* it2525 (- 1))) 0))
(assert (= (+ it2573 (* it2526 (- 1)) 1) 0))
(assert (= (+ it2574 (* it2525 (- 1))) 0))
(assert (= (+ it2575 (* it2525 (- 2))) 0))
(assert (let ((a!1 (>= (+ (+ it2573 (* it19 (- 1))) (* it2572 (- 2))) 0))
      (a!2 (+ (+ (+ it2573 (* it19 (- 1))) (* it2572 (- 2))) 1))
      (a!3 (>= (+ (+ it2573 (* it2575 (- 1))) (- 1)) 0))
      (a!4 (>= (+ (+ it2573 (* it19 (- 1))) (- 2)) 0)))
  (and (>= (+ it2573 (- 3)) 0)
       (>= (+ it2570 (- 3)) 0)
       (>= (+ it19 (- 1)) 0)
       (>= (+ it2572 (- 1)) 0)
       (>= (+ it2573 (- 2)) 0)
       a!1
       (>= (+ (* it2572 (- 1)) 1) 0)
       (>= a!2 0)
       a!3
       (>= (+ (* it2570 (- 1)) 3) 0)
       a!4
       (>= (+ it2573 (* it2575 (- 1))) 0))))
(assert (= (+ (* it2570 (- 1)) it2603) 0))
(assert (= (+ (* it19 (- 3)) (* it2571 (- 1)) it2604) 0))
(assert (= (+ it2605 (* it2572 (- 1))) 0))
(assert (= (+ (* it2573 (- 1)) it19 it2606) 0))
(assert (= (+ (* it2572 (- 1)) it2607) 0))
(assert (= (+ it2608 (* it2572 (- 2))) 0))
(assert (and (= (+ it2603 (- 3)) 0) (= (+ (* it2608 (- 1)) it2606) 0)))
(assert (= (+ it2623 (- 4)) 0))
(assert (= (+ it2624 (* it2604 (- 1)) (- 1)) 0))
(assert (= (+ (* it2605 (- 1)) it2625) 0))
(assert (= (+ (* it2606 (- 1)) it2626) 0))
(assert (= (+ it2627 (* it2607 (- 1))) 0))
(assert (= (+ (* it2608 (- 1)) it2628) 0))
(assert (and (>= (+ it2626 (- 2)) 0)
     (= (+ it2623 (- 4)) 0)
     (>= (+ it2625 (- 2)) 0)
     (>= (+ it2625 (- 1)) 0)))
(check-sat)
